NAME: A-n52-f8
COMMENT : -
TYPE : GVRP
DIMENSION : 59
EDGE_WEIGHT_TYPE : EUC_2D
CAPACITY : 100
AUTONOMY : 64
DEPOT_COORD_SECTION
1 24 63
CUSTOMER_COORD_SECTION
2 35 60
3 79 46
4 3 45
5 42 50
6 3 40
7 29 96
8 47 30
9 54 77
10 36 30
11 83 86
12 30 6
13 55 29
14 13 2
15 1 19
16 98 1
17 75 10
18 39 23
19 62 91
20 96 9
21 27 87
22 14 16
23 52 49
24 95 21
25 30 6
26 18 40
27 82 90
28 50 79
29 48 49
30 82 73
31 64 62
32 34 78
33 83 6
34 3 77
35 18 8
36 53 86
37 88 51
38 77 51
39 58 89
40 12 44
41 70 88
42 36 17
43 85 23
44 93 30
45 68 67
46 71 34
47 56 73
48 37 37
49 78 20
50 88 69
51 95 42
52 44 71
53 18 1
AFS_COORD_SECTION
54 15 16
55 81 53
56 73 13
57 44 68
58 69 94
59 78 40
60 81 79
EOF